c Random generated cnf formula, satisfiable: true
p cnf 10 50
10 -8 -2 0
-6 -4 -2 0
2 4 -1 0
-2 -6 -8 0
-10 7 5 0
-2 9 3 0
5 -2 10 0
9 8 -7 0
-10 7 -6 0
1 -5 -7 0
6 9 8 0
8 -2 9 0
-6 -8 4 0
-2 5 -6 0
10 -1 7 0
-4 5 -3 0
1 -5 -7 0
-9 5 3 0
-1 3 -2 0
-2 1 5 0
3 5 -10 0
5 -3 7 0
-1 -10 2 0
-1 -5 -9 0
-7 -9 1 0
10 6 7 0
10 -7 -3 0
7 1 -8 0
4 -8 3 0
4 8 -9 0
-5 8 2 0
2 -7 -9 0
-5 8 -2 0
10 4 -9 0
1 9 6 0
3 -4 -2 0
2 -8 -9 0
1 6 -3 0
1 -6 -7 0
5 -4 -7 0
2 3 6 0
-4 7 -1 0
2 5 -4 0
-3 -9 -10 0
7 1 -5 0
7 -6 -9 0
2 3 -6 0
-10 -9 7 0
-3 2 10 0
-3 6 5 0
